6051.0 320855.0 
6029.0 321423.0 
6076.0 318864.0 
6144.0 317877.0 
6150.0 317606.0 
6055.0 320787.0 
6057.0 319979.0 
6011.0 321652.0 
6066.0 319784.0 
6088.0 318385.0 
6127.0 318121.0 
6008.0 321931.0 
6045.0 320996.0 
6118.0 318207.0 
